SCIP version 5.0.0 [precision: 8 byte] [memory: block] [mode: optimized] [LP solver: NONE] [GitHash: 3bbd232]
Copyright (C) 2002-2017 Konrad-Zuse-Zentrum fuer Informationstechnik Berlin (ZIB)

External codes: 
  Readline EditLine w  GNU library for command line editing (gnu.org/s/readline)
  CppAD 20160000.1     Algorithmic Differentiation of C++ algorithms developed by B. Bell (www.coin-or.org/CppAD)
  ZLIB 1.2.5           General purpose compression library by J. Gailly and M. Adler (zlib.net)
  GMP 6.1.2            GNU Multiple Precision Arithmetic Library developed by T. Granlund (gmplib.org)

user parameter file <scip.set> not found - using default parameters

read problem <../../Split_data/output/statG/0/3_sample_statG.logreg>
============

File name	:	../../Split_data/output/statG/0/3_sample_statG.logreg
Problem name 	:	3_sample_statG
Number of data	:	800
Number of var	:	61
The given data has linear dependence
13 sets of column vector are linearly dependent:

[dim=1] time: 0.053345
[dim=2] time: 0.093531
[dim=3] time: 0.146296
[dim=4] time: 0.188238
[dim=5] time: 0.23892
[dim=6] time: 0.280529
[dim=7] time: 0.322885
[dim=8] time: 0.364188
[dim=9] time: 0.413241
[dim=10] time: 0.455934
[dim=11] time: 0.505923
[dim=12] time: 0.549543
[dim=13] time: 0.598627
[dim=14] time: 0.651438
[dim=15] time: 0.696264
[dim=16] time: 0.736986
[dim=17] time: 0.776339
[dim=18] time: 0.841725
[dim=19] time: 0.906623
[dim=20] time: 0.945382
[dim=21] time: 1.02752
[dim=22] time: 1.06216
[dim=23] time: 1.14429
[dim=24] time: 1.21909
[dim=25] time: 1.29152
[dim=26] Time of forward = 1.34927sec.
AIC: 765.351
k: 25

[dim=48] time: 0.174507
[dim=47] time: 0.285393
[dim=46] time: 0.415163
[dim=45] time: 0.531755
[dim=44] time: 0.657608
[dim=43] time: 0.773116
[dim=42] time: 0.869771
[dim=41] time: 0.983239
[dim=40] time: 1.08337
[dim=39] time: 1.18488
[dim=38] time: 1.2831
[dim=37] time: 1.38121
[dim=36] time: 1.46093
[dim=35] time: 1.54291
[dim=34] time: 1.62502
[dim=33] time: 1.70936
[dim=32] time: 1.79645
[dim=31] time: 1.85907
[dim=30] time: 1.92565
[dim=29] time: 1.98805
[dim=28] time: 2.04009
[dim=27] Time of backward = 2.10085sec.
AIC: 769.973
k: 28
